instances/knapsack/discrete/knapsack_60_9.lp
\ Model knapsack_60_9
\ LP format - for model browsing. Use MPS format to capture full model detail.
\ Signature: 0x44a844bc7146bef8
Minimize
  - 76 x[0] - 21 x[1] - 98 x[2] - 42 x[3] - 44 x[4] - 47 x[5] - 28 x[6]
   - 30 x[7] - 9 x[8] - 57 x[9] - 57 x[10] - 77 x[11] - 69 x[12] - 44 x[13]
   - 65 x[14] - 74 x[15] - 68 x[16] - 96 x[17] - 25 x[18] - 32 x[19]
   - 28 x[20] - 73 x[21] - 78 x[22] - 18 x[23] - 51 x[24] - 93 x[25]
   - 86 x[26] - 2 x[27] - 76 x[28] - 63 x[29] - 11 x[30] - 6 x[31]
   - 46 x[32] - 57 x[33] - 34 x[34] - 23 x[35] - 59 x[36] - 57 x[37]
   - 81 x[38] - 38 x[39] - 42 x[40] - 84 x[41] - 56 x[42] - 5 x[43]
   - 77 x[44] - 53 x[45] - 99 x[46] - 99 x[47] - 87 x[48] - 52 x[49]
   - 61 x[50] - 13 x[51] - 25 x[52] - 75 x[53] - 62 x[54] - 96 x[55]
   - 57 x[56] - 34 x[57] - 82 x[58] - 85 x[59]
Subject To
 primal_upper: 2 x[0] + 38 x[1] + 80 x[2] + 73 x[3] + 94 x[4] + 28 x[5]
   + 35 x[6] + 46 x[7] + 39 x[8] + 40 x[9] + 34 x[10] + 89 x[11] + 94 x[12]
   + 22 x[13] + 23 x[14] + 23 x[15] + 39 x[16] + 38 x[17] + 67 x[18]
   + 96 x[19] + 83 x[20] + 94 x[21] + 38 x[22] + 89 x[23] + 79 x[24]
   + 54 x[25] + 32 x[26] + 98 x[27] + 24 x[28] + 5 x[29] + 36 x[30]
   + 38 x[31] + 82 x[32] + 83 x[33] + 14 x[34] + 59 x[35] + 78 x[36]
   + 27 x[37] + 98 x[38] + 29 x[39] + 53 x[40] + 4 x[41] + 4 x[42]
   + 44 x[43] + 13 x[44] + 81 x[45] + 52 x[46] + 52 x[47] + 9 x[48]
   + 6 x[49] + 77 x[50] + 98 x[51] + 67 x[52] + 14 x[53] + 31 x[54]
   + 86 x[55] + 15 x[56] + 53 x[57] + 86 x[58] + 80 x[59] + 0.2 r[0]
   + 3.8 r[1] + 8 r[2] + 7.3 r[3] + 9.4 r[4] + 2.8 r[5] + 3.5 r[6]
   + 4.6 r[7] + 3.9 r[8] + 4 r[9] + 3.4 r[10] + 8.9 r[11] + 9.4 r[12]
   + 2.2 r[13] + 2.3 r[14] + 2.3 r[15] + 3.9 r[16] + 3.8 r[17] + 6.7 r[18]
   + 9.6 r[19] + 8.3 r[20] + 9.4 r[21] + 3.8 r[22] + 8.9 r[23] + 7.9 r[24]
   + 5.4 r[25] + 3.2 r[26] + 9.8 r[27] + 2.4 r[28] + 0.5 r[29] + 3.6 r[30]
   + 3.8 r[31] + 8.2 r[32] + 8.3 r[33] + 1.4 r[34] + 5.9 r[35] + 7.8 r[36]
   + 2.7 r[37] + 9.8 r[38] + 2.9 r[39] + 5.3 r[40] + 0.4 r[41] + 0.4 r[42]
   + 4.4 r[43] + 1.3 r[44] + 8.1 r[45] + 5.2 r[46] + 5.2 r[47] + 0.9 r[48]
   + 0.6 r[49] + 7.7 r[50] + 9.8 r[51] + 6.7 r[52] + 1.4 r[53] + 3.1 r[54]
   + 8.6 r[55] + 1.5 r[56] + 5.3 r[57] + 8.6 r[58] + 8 r[59] <= 291
 primal_lower: 2.580516229515896 x[0] + 1.635292869059501 x[1]
   + 2.215857551734169 x[2] + 2.594240977866255 x[3]
   + 3.366233147240227 x[4] + 2.839905551793491 x[5]
   + 0.6966928910642949 x[6] + 3.320869644285924 x[7]
   + 2.300930503005249 x[8] + 3.613632538633488 x[9]
   + 3.013716885361322 x[10] + 2.795861685013031 x[11]
   + 4.11732769892287 x[12] + 1.971885202203516 x[13]
   + 0.0864449257482238 x[14] + 4.091850002154954 x[15]
   + 0.2168396290760545 x[16] + 1.257836201084917 x[17]
   + 0.9427599434521704 x[18] + 2.718215273533706 x[19]
   + 3.639731371403642 x[20] + 0.1706515810811459 x[21]
   + 2.24836902350456 x[22] + 0.988717766127328 x[23]
   + 0.7696185103583497 x[24] + 3.96911051416996 x[25]
   + 1.205461785665108 x[26] + 3.485028054821439 x[27]
   + 3.214741613687563 x[28] + 2.700051635853975 x[29]
   + 2.110882574734824 x[30] + 1.309913479379923 x[31]
   + 0.429882897159399 x[32] + 1.2060040915282 x[33]
   + 4.171478563045053 x[34] + 3.912411516132484 x[35]
   + 2.385348350362667 x[36] + 4.034114141471417 x[37]
   + 3.263115067717985 x[38] + 1.345389526474323 x[39]
   + 3.282280619254303 x[40] + 2.848254526631259 x[41]
   + 2.963569358660662 x[42] + 1.627922846492042 x[43]
   + 0.2060415849669517 x[44] + 2.327359266834985 x[45]
   + 2.869305407631101 x[46] + 3.124723488414064 x[47]
   + 3.231534730976656 x[48] + 2.326815016288605 x[49]
   + 2.977454441590254 x[50] + 1.431896957465064 x[51]
   + 2.014218813290888 x[52] + 0.9130074352439304 x[53]
   + 2.82021104930535 x[54] + 0.6014712277985879 x[55]
   + 1.229195564138737 x[56] + 1.002143577718082 x[57]
   + 1.061834991423854 x[58] + 4.607417604431677 x[59] + 32 u[0] + 76 u[1]
   + 86 u[2] + 91 u[3] + 96 u[4] + 14 u[5] + 25 u[6] + 24 u[7] + 29 u[8]
   + 62 u[9] + 40 u[10] + 55 u[11] + 80 u[12] + 96 u[13] + 97 u[14]
   + 45 u[15] + 77 u[16] + 72 u[17] + 81 u[18] + 70 u[19] + 13 u[20]
   + 28 u[21] + 32 u[22] + 59 u[23] + 13 u[24] + 28 u[25] + 90 u[26]
   + 12 u[27] + 6 u[28] + 91 u[29] + 22 u[30] + 32 u[31] + 68 u[32]
   + 77 u[33] + 64 u[34] + 21 u[35] + 44 u[36] + 33 u[37] + 84 u[38]
   + 75 u[39] + 59 u[40] + 82 u[41] + 2 u[42] + 58 u[43] + 3 u[44]
   + 3 u[45] + 2 u[46] + 42 u[47] + 23 u[48] + 32 u[49] + 99 u[50]
   + 88 u[51] + 69 u[52] + 32 u[53] + 53 u[54] + 20 u[55] + 17 u[56]
   + 31 u[57] + 68 u[58] + 2 u[59] <= 68274
 mccormick1[0]: - u[0] + r[0] <= 0
 mccormick1[1]: - u[1] + r[1] <= 0
 mccormick1[2]: - u[2] + r[2] <= 0
 mccormick1[3]: - u[3] + r[3] <= 0
 mccormick1[4]: - u[4] + r[4] <= 0
 mccormick1[5]: - u[5] + r[5] <= 0
 mccormick1[6]: - u[6] + r[6] <= 0
 mccormick1[7]: - u[7] + r[7] <= 0
 mccormick1[8]: - u[8] + r[8] <= 0
 mccormick1[9]: - u[9] + r[9] <= 0
 mccormick1[10]: - u[10] + r[10] <= 0
 mccormick1[11]: - u[11] + r[11] <= 0
 mccormick1[12]: - u[12] + r[12] <= 0
 mccormick1[13]: - u[13] + r[13] <= 0
 mccormick1[14]: - u[14] + r[14] <= 0
 mccormick1[15]: - u[15] + r[15] <= 0
 mccormick1[16]: - u[16] + r[16] <= 0
 mccormick1[17]: - u[17] + r[17] <= 0
 mccormick1[18]: - u[18] + r[18] <= 0
 mccormick1[19]: - u[19] + r[19] <= 0
 mccormick1[20]: - u[20] + r[20] <= 0
 mccormick1[21]: - u[21] + r[21] <= 0
 mccormick1[22]: - u[22] + r[22] <= 0
 mccormick1[23]: - u[23] + r[23] <= 0
 mccormick1[24]: - u[24] + r[24] <= 0
 mccormick1[25]: - u[25] + r[25] <= 0
 mccormick1[26]: - u[26] + r[26] <= 0
 mccormick1[27]: - u[27] + r[27] <= 0
 mccormick1[28]: - u[28] + r[28] <= 0
 mccormick1[29]: - u[29] + r[29] <= 0
 mccormick1[30]: - u[30] + r[30] <= 0
 mccormick1[31]: - u[31] + r[31] <= 0
 mccormick1[32]: - u[32] + r[32] <= 0
 mccormick1[33]: - u[33] + r[33] <= 0
 mccormick1[34]: - u[34] + r[34] <= 0
 mccormick1[35]: - u[35] + r[35] <= 0
 mccormick1[36]: - u[36] + r[36] <= 0
 mccormick1[37]: - u[37] + r[37] <= 0
 mccormick1[38]: - u[38] + r[38] <= 0
 mccormick1[39]: - u[39] + r[39] <= 0
 mccormick1[40]: - u[40] + r[40] <= 0
 mccormick1[41]: - u[41] + r[41] <= 0
 mccormick1[42]: - u[42] + r[42] <= 0
 mccormick1[43]: - u[43] + r[43] <= 0
 mccormick1[44]: - u[44] + r[44] <= 0
 mccormick1[45]: - u[45] + r[45] <= 0
 mccormick1[46]: - u[46] + r[46] <= 0
 mccormick1[47]: - u[47] + r[47] <= 0
 mccormick1[48]: - u[48] + r[48] <= 0
 mccormick1[49]: - u[49] + r[49] <= 0
 mccormick1[50]: - u[50] + r[50] <= 0
 mccormick1[51]: - u[51] + r[51] <= 0
 mccormick1[52]: - u[52] + r[52] <= 0
 mccormick1[53]: - u[53] + r[53] <= 0
 mccormick1[54]: - u[54] + r[54] <= 0
 mccormick1[55]: - u[55] + r[55] <= 0
 mccormick1[56]: - u[56] + r[56] <= 0
 mccormick1[57]: - u[57] + r[57] <= 0
 mccormick1[58]: - u[58] + r[58] <= 0
 mccormick1[59]: - u[59] + r[59] <= 0
 mccormick2[0]: - x[0] + r[0] <= 0
 mccormick2[1]: - x[1] + r[1] <= 0
 mccormick2[2]: - x[2] + r[2] <= 0
 mccormick2[3]: - x[3] + r[3] <= 0
 mccormick2[4]: - x[4] + r[4] <= 0
 mccormick2[5]: - x[5] + r[5] <= 0
 mccormick2[6]: - x[6] + r[6] <= 0
 mccormick2[7]: - x[7] + r[7] <= 0
 mccormick2[8]: - x[8] + r[8] <= 0
 mccormick2[9]: - x[9] + r[9] <= 0
 mccormick2[10]: - x[10] + r[10] <= 0
 mccormick2[11]: - x[11] + r[11] <= 0
 mccormick2[12]: - x[12] + r[12] <= 0
 mccormick2[13]: - x[13] + r[13] <= 0
 mccormick2[14]: - x[14] + r[14] <= 0
 mccormick2[15]: - x[15] + r[15] <= 0
 mccormick2[16]: - x[16] + r[16] <= 0
 mccormick2[17]: - x[17] + r[17] <= 0
 mccormick2[18]: - x[18] + r[18] <= 0
 mccormick2[19]: - x[19] + r[19] <= 0
 mccormick2[20]: - x[20] + r[20] <= 0
 mccormick2[21]: - x[21] + r[21] <= 0
 mccormick2[22]: - x[22] + r[22] <= 0
 mccormick2[23]: - x[23] + r[23] <= 0
 mccormick2[24]: - x[24] + r[24] <= 0
 mccormick2[25]: - x[25] + r[25] <= 0
 mccormick2[26]: - x[26] + r[26] <= 0
 mccormick2[27]: - x[27] + r[27] <= 0
 mccormick2[28]: - x[28] + r[28] <= 0
 mccormick2[29]: - x[29] + r[29] <= 0
 mccormick2[30]: - x[30] + r[30] <= 0
 mccormick2[31]: - x[31] + r[31] <= 0
 mccormick2[32]: - x[32] + r[32] <= 0
 mccormick2[33]: - x[33] + r[33] <= 0
 mccormick2[34]: - x[34] + r[34] <= 0
 mccormick2[35]: - x[35] + r[35] <= 0
 mccormick2[36]: - x[36] + r[36] <= 0
 mccormick2[37]: - x[37] + r[37] <= 0
 mccormick2[38]: - x[38] + r[38] <= 0
 mccormick2[39]: - x[39] + r[39] <= 0
 mccormick2[40]: - x[40] + r[40] <= 0
 mccormick2[41]: - x[41] + r[41] <= 0
 mccormick2[42]: - x[42] + r[42] <= 0
 mccormick2[43]: - x[43] + r[43] <= 0
 mccormick2[44]: - x[44] + r[44] <= 0
 mccormick2[45]: - x[45] + r[45] <= 0
 mccormick2[46]: - x[46] + r[46] <= 0
 mccormick2[47]: - x[47] + r[47] <= 0
 mccormick2[48]: - x[48] + r[48] <= 0
 mccormick2[49]: - x[49] + r[49] <= 0
 mccormick2[50]: - x[50] + r[50] <= 0
 mccormick2[51]: - x[51] + r[51] <= 0
 mccormick2[52]: - x[52] + r[52] <= 0
 mccormick2[53]: - x[53] + r[53] <= 0
 mccormick2[54]: - x[54] + r[54] <= 0
 mccormick2[55]: - x[55] + r[55] <= 0
 mccormick2[56]: - x[56] + r[56] <= 0
 mccormick2[57]: - x[57] + r[57] <= 0
 mccormick2[58]: - x[58] + r[58] <= 0
 mccormick2[59]: - x[59] + r[59] <= 0
 mccormick3[0]: x[0] + u[0] - r[0] <= 1
 mccormick3[1]: x[1] + u[1] - r[1] <= 1
 mccormick3[2]: x[2] + u[2] - r[2] <= 1
 mccormick3[3]: x[3] + u[3] - r[3] <= 1
 mccormick3[4]: x[4] + u[4] - r[4] <= 1
 mccormick3[5]: x[5] + u[5] - r[5] <= 1
 mccormick3[6]: x[6] + u[6] - r[6] <= 1
 mccormick3[7]: x[7] + u[7] - r[7] <= 1
 mccormick3[8]: x[8] + u[8] - r[8] <= 1
 mccormick3[9]: x[9] + u[9] - r[9] <= 1
 mccormick3[10]: x[10] + u[10] - r[10] <= 1
 mccormick3[11]: x[11] + u[11] - r[11] <= 1
 mccormick3[12]: x[12] + u[12] - r[12] <= 1
 mccormick3[13]: x[13] + u[13] - r[13] <= 1
 mccormick3[14]: x[14] + u[14] - r[14] <= 1
 mccormick3[15]: x[15] + u[15] - r[15] <= 1
 mccormick3[16]: x[16] + u[16] - r[16] <= 1
 mccormick3[17]: x[17] + u[17] - r[17] <= 1
 mccormick3[18]: x[18] + u[18] - r[18] <= 1
 mccormick3[19]: x[19] + u[19] - r[19] <= 1
 mccormick3[20]: x[20] + u[20] - r[20] <= 1
 mccormick3[21]: x[21] + u[21] - r[21] <= 1
 mccormick3[22]: x[22] + u[22] - r[22] <= 1
 mccormick3[23]: x[23] + u[23] - r[23] <= 1
 mccormick3[24]: x[24] + u[24] - r[24] <= 1
 mccormick3[25]: x[25] + u[25] - r[25] <= 1
 mccormick3[26]: x[26] + u[26] - r[26] <= 1
 mccormick3[27]: x[27] + u[27] - r[27] <= 1
 mccormick3[28]: x[28] + u[28] - r[28] <= 1
 mccormick3[29]: x[29] + u[29] - r[29] <= 1
 mccormick3[30]: x[30] + u[30] - r[30] <= 1
 mccormick3[31]: x[31] + u[31] - r[31] <= 1
 mccormick3[32]: x[32] + u[32] - r[32] <= 1
 mccormick3[33]: x[33] + u[33] - r[33] <= 1
 mccormick3[34]: x[34] + u[34] - r[34] <= 1
 mccormick3[35]: x[35] + u[35] - r[35] <= 1
 mccormick3[36]: x[36] + u[36] - r[36] <= 1
 mccormick3[37]: x[37] + u[37] - r[37] <= 1
 mccormick3[38]: x[38] + u[38] - r[38] <= 1
 mccormick3[39]: x[39] + u[39] - r[39] <= 1
 mccormick3[40]: x[40] + u[40] - r[40] <= 1
 mccormick3[41]: x[41] + u[41] - r[41] <= 1
 mccormick3[42]: x[42] + u[42] - r[42] <= 1
 mccormick3[43]: x[43] + u[43] - r[43] <= 1
 mccormick3[44]: x[44] + u[44] - r[44] <= 1
 mccormick3[45]: x[45] + u[45] - r[45] <= 1
 mccormick3[46]: x[46] + u[46] - r[46] <= 1
 mccormick3[47]: x[47] + u[47] - r[47] <= 1
 mccormick3[48]: x[48] + u[48] - r[48] <= 1
 mccormick3[49]: x[49] + u[49] - r[49] <= 1
 mccormick3[50]: x[50] + u[50] - r[50] <= 1
 mccormick3[51]: x[51] + u[51] - r[51] <= 1
 mccormick3[52]: x[52] + u[52] - r[52] <= 1
 mccormick3[53]: x[53] + u[53] - r[53] <= 1
 mccormick3[54]: x[54] + u[54] - r[54] <= 1
 mccormick3[55]: x[55] + u[55] - r[55] <= 1
 mccormick3[56]: x[56] + u[56] - r[56] <= 1
 mccormick3[57]: x[57] + u[57] - r[57] <= 1
 mccormick3[58]: x[58] + u[58] - r[58] <= 1
 mccormick3[59]: x[59] + u[59] - r[59] <= 1
Bounds
Binaries
 x[0] x[1] x[2] x[3] x[4] x[5] x[6] x[7] x[8] x[9] x[10] x[11] x[12] x[13]
 x[14] x[15] x[16] x[17] x[18] x[19] x[20] x[21] x[22] x[23] x[24] x[25]
 x[26] x[27] x[28] x[29] x[30] x[31] x[32] x[33] x[34] x[35] x[36] x[37]
 x[38] x[39] x[40] x[41] x[42] x[43] x[44] x[45] x[46] x[47] x[48] x[49]
 x[50] x[51] x[52] x[53] x[54] x[55] x[56] x[57] x[58] x[59] u[0] u[1] u[2]
 u[3] u[4] u[5] u[6] u[7] u[8] u[9] u[10] u[11] u[12] u[13] u[14] u[15]
 u[16] u[17] u[18] u[19] u[20] u[21] u[22] u[23] u[24] u[25] u[26] u[27]
 u[28] u[29] u[30] u[31] u[32] u[33] u[34] u[35] u[36] u[37] u[38] u[39]
 u[40] u[41] u[42] u[43] u[44] u[45] u[46] u[47] u[48] u[49] u[50] u[51]
 u[52] u[53] u[54] u[55] u[56] u[57] u[58] u[59] r[0] r[1] r[2] r[3] r[4]
 r[5] r[6] r[7] r[8] r[9] r[10] r[11] r[12] r[13] r[14] r[15] r[16] r[17]
 r[18] r[19] r[20] r[21] r[22] r[23] r[24] r[25] r[26] r[27] r[28] r[29]
 r[30] r[31] r[32] r[33] r[34] r[35] r[36] r[37] r[38] r[39] r[40] r[41]
 r[42] r[43] r[44] r[45] r[46] r[47] r[48] r[49] r[50] r[51] r[52] r[53]
 r[54] r[55] r[56] r[57] r[58] r[59]
End
