instances/knapsack/discrete/knapsack_60_9.kp
28094
60
291

2 0.2 76
38 3.8 21
80 8.0 98
73 7.3 42
94 9.4 44
28 2.8 47
35 3.5 28
46 4.6 30
39 3.9 9
40 4.0 57
34 3.4 57
89 8.9 77
94 9.4 69
22 2.2 44
23 2.3 65
23 2.3 74
39 3.9 68
38 3.8 96
67 6.7 25
96 9.6 32
83 8.3 28
94 9.4 73
38 3.8 78
89 8.9 18
79 7.9 51
54 5.4 93
32 3.2 86
98 9.8 2
24 2.4 76
5 0.5 63
36 3.6 11
38 3.8 6
82 8.2 46
83 8.3 57
14 1.4 34
59 5.9 23
78 7.8 59
27 2.7 57
98 9.8 81
29 2.9 38
53 5.3 42
4 0.4 84
4 0.4 56
44 4.4 5
13 1.3 77
81 8.1 53
52 5.2 99
52 5.2 99
9 0.9 87
6 0.6 52
77 7.7 61
98 9.8 13
67 6.7 25
14 1.4 75
31 3.1 62
86 8.6 96
15 1.5 57
53 5.3 34
86 8.6 82
80 8.0 85

68274
278

[2.5805162295158963 1.6352928690595012 2.215857551734169 2.5942409778662547 3.366233147240227 2.8399055517934912 0.6966928910642949 3.320869644285924 2.300930503005249 3.613632538633488 3.013716885361322 2.7958616850130307 4.11732769892287 1.9718852022035158 0.08644492574822384 4.0918500021549535 0.2168396290760545 1.257836201084917 0.9427599434521704 2.718215273533706 3.6397313714036423 0.1706515810811459 2.2483690235045604 0.988717766127328 0.7696185103583497 3.9691105141699596 1.205461785665108 3.4850280548214387 3.214741613687563 2.7000516358539755 2.1108825747348243 1.3099134793799232 0.429882897159399 1.2060040915282004 4.171478563045053 3.9124115161324835 2.3853483503626673 4.0341141414714174 3.2631150677179845 1.345389526474323 3.282280619254303 2.848254526631259 2.963569358660662 1.6279228464920419 0.20604158496695169 2.3273592668349847 2.869305407631101 3.1247234884140638 3.2315347309766564 2.326815016288605 2.9774544415902535 1.4318969574650637 2.014218813290888 0.9130074352439304 2.8202110493053496 0.6014712277985879 1.2291955641387369 1.002143577718082 1.0618349914238536 4.607417604431677]

[32 76 86 91 96 14 25 24 29 62 40 55 80 96 97 45 77 72 81 70 13 28 32 59 13 28 90 12 6 91 22 32 68 77 64 21 44 33 84 75 59 82 2 58 3 3 2 42 23 32 99 88 69 32 53 20 17 31 68 2]
